(set-logic ALL)
(set-option :produce-models true)
(define-fun-rec str.toLower ((x String)) String
  (ite (= x "")
      ""
      (let ((Head (str.at x 0)))
        (str.++ 
          (ite (and (<= 65 (str.to_code Head)) 
                     (<= (str.to_code Head) 90))
               (str.from_code (+ (str.to_code Head) 32))
               Head)
          (str.toLower (str.substr x 1 (- (str.len x) 1)))))))
(declare-fun sym209 () String)
(assert (<= (str.len sym209) 1))
(declare-fun sym816 () String)
(assert (<= (str.len sym816) 1))
(declare-fun sym2319 () String)
(assert (<= (str.len sym2319) 1))
(declare-fun sym551 () String)
(assert (<= (str.len sym551) 1))
(declare-fun sym2953 () String)
(assert (<= (str.len sym2953) 1))
(declare-fun sym1457 () String)
(assert (<= (str.len sym1457) 1))
(declare-fun sym2535 () String)
(assert (<= (str.len sym2535) 1))
(declare-fun sym2107 () String)
(assert (<= (str.len sym2107) 1))
(declare-fun sym4328 () String)
(assert (<= (str.len sym4328) 1))
(declare-fun sym3799 () String)
(assert (<= (str.len sym3799) 1))
(declare-fun sym1673 () String)
(assert (<= (str.len sym1673) 1))
(declare-fun sym3169 () String)
(assert (<= (str.len sym3169) 1))
(declare-fun sym2751 () String)
(assert (<= (str.len sym2751) 1))
(declare-fun sym3587 () String)
(assert (<= (str.len sym3587) 1))
(declare-fun sym1894 () String)
(assert (<= (str.len sym1894) 1))
(declare-fun sym4015 () String)
(assert (<= (str.len sym4015) 1))
(declare-fun sym3385 () String)
(assert (<= (str.len sym3385) 1))
(declare-fun sym1241 () String)
(assert (<= (str.len sym1241) 1))
(declare-fun sym1032 () String)
(assert (<= (str.len sym1032) 1))
(declare-fun sym4231 () String)
(assert (<= (str.len sym4231) 1))
(declare-fun sym161 () String)
(assert (<= (str.len sym161) 1))
(define-fun Alphabet () RegLan 
	(re.* (re.union (str.to_re "A") (str.to_re "B") (str.to_re "C") (str.to_re "D") (str.to_re "E") (str.to_re "F") (str.to_re "G") (str.to_re "H") (str.to_re "I") (str.to_re "J") (str.to_re "K") (str.to_re "L") (str.to_re "M") (str.to_re "N") (str.to_re "O") (str.to_re "P") (str.to_re "Q") (str.to_re "R") (str.to_re "S") (str.to_re "T") (str.to_re "U") (str.to_re "V") (str.to_re "W") (str.to_re "X") (str.to_re "Y") (str.to_re "Z") (str.to_re "a") (str.to_re "b") (str.to_re "c") (str.to_re "d") (str.to_re "e") (str.to_re "f") (str.to_re "g") (str.to_re "h") (str.to_re "i") (str.to_re "j") (str.to_re "k") (str.to_re "l") (str.to_re "m") (str.to_re "n") (str.to_re "o") (str.to_re "p") (str.to_re "q") (str.to_re "r") (str.to_re "s") (str.to_re "t") (str.to_re "u") (str.to_re "v") (str.to_re "w") (str.to_re "x") (str.to_re "y") (str.to_re "z") ))
)

(assert (str.in_re sym161 Alphabet))
(assert (str.in_re sym4231 Alphabet))
(assert (str.in_re sym1032 Alphabet))
(assert (str.in_re sym1241 Alphabet))
(assert (str.in_re sym3385 Alphabet))
(assert (str.in_re sym4015 Alphabet))
(assert (str.in_re sym1894 Alphabet))
(assert (str.in_re sym3587 Alphabet))
(assert (str.in_re sym2751 Alphabet))
(assert (str.in_re sym3169 Alphabet))
(assert (str.in_re sym1673 Alphabet))
(assert (str.in_re sym3799 Alphabet))
(assert (str.in_re sym4328 Alphabet))
(assert (str.in_re sym2107 Alphabet))
(assert (str.in_re sym2535 Alphabet))
(assert (str.in_re sym1457 Alphabet))
(assert (str.in_re sym2953 Alphabet))
(assert (str.in_re sym551 Alphabet))
(assert (str.in_re sym2319 Alphabet))
(assert (str.in_re sym816 Alphabet))
(assert (str.in_re sym209 Alphabet))(assert (<= 1 (str.len sym1673 )))
(assert (<= 1 (str.len sym3385 )))
(assert (<= 1 (str.len sym4328 )))
(assert (<= 1 (str.len sym1032 )))
(assert (<= 1 (str.len sym3587 )))
(assert (<= 1 (str.len sym1241 )))
(assert (<= 1 (str.len sym4015 )))
(assert (<= 1 (str.len sym3799 )))
(assert (<= 1 (str.len sym209 )))
(assert (<= 1 (str.len sym1894 )))
(assert (<= 1 (str.len sym1457 )))
(assert (<= 1 (str.len sym4231 )))
(assert (<= 1 (str.len sym2751 )))
(assert (<= 1 (str.len sym816 )))
(assert (<= 1 (str.len sym551 )))
(assert (<= 1 (str.len sym3169 )))
(assert (<= 1 (str.len sym2535 )))
(assert (<= 1 (str.len sym2107 )))
(assert (<= 1 (str.len sym2319 )))
(assert (<= 1 (str.len sym2953 )))

(assert (= (str.toLower (str.substr sym816  0 1))"g" ))
(assert (not (= (str.toLower (str.substr sym1673  0 1))"l" )))
(assert (= "" "" ))
(assert (= (str.toLower (str.substr sym4231  0 1))"g" ))
(assert (not (= (str.toLower (str.substr sym1673  0 1))"k" )))
(assert (= "y" "y" ))
(assert (not (= "" sym3587 )))
(assert (not (= (str.toLower (str.substr sym2107  0 1))"p" )))
(assert (= (str.toLower (str.substr sym1673  0 1))"h" ))
(assert (not (= (str.toLower (str.substr sym3169  0 1))"q" )))
(assert (not (= (str.toLower (str.substr sym3587  0 1))"p" )))
(assert (= "" sym161 ))
(assert (not (= (str.toLower (str.substr sym551  0 1))"k" )))
(assert (not (= (str.toLower (str.substr sym1673  0 1))"q" )))
(assert (not (= (str.toLower (str.substr sym2751  0 1))"q" )))
(assert (not (= "" sym551 )))
(assert (not (= "" "n" )))
(assert (not (= (str.toLower (str.substr sym3799  0 1))"k" )))
(assert (= (str.toLower (str.substr sym2107  0 1))"l" ))
(assert (not (= "" (str.toLower (str.substr sym4328  0 1)))))
(assert (not (= "" sym3385 )))
(assert (not (= "" "q" )))
(assert (not (= (str.toLower (str.substr sym1241  0 1))"p" )))
(assert (not (= "" sym2751 )))
(assert (not (= "" sym1241 )))
(assert (not (= (str.toLower (str.substr sym1032  0 1))"q" )))
(assert (not (= (str.toLower (str.substr sym2953  0 1))"q" )))
(assert (not (= (str.toLower (str.substr sym816  0 1))"q" )))
(assert (not (= (str.toLower (str.substr sym4328  0 1))"y" )))
(assert (not (= (str.toLower (str.substr sym2319  0 1))"p" )))
(assert (not (= (str.toLower (str.substr sym2319  0 1))"q" )))
(assert (not (= "" sym3169 )))
(assert (not (= "" sym3799 )))
(assert (not (= (str.toLower (str.substr sym816  0 1))"k" )))
(assert (not (= (str.toLower (str.substr sym3385  0 1))"p" )))
(assert (not (= (str.toLower (str.substr sym4231  0 1))"q" )))
(assert (not (= (str.toLower (str.substr sym3385  0 1))"k" )))
(assert (not (= (str.toLower (str.substr sym4231  0 1))"p" )))
(assert (not (= (str.toLower (str.substr sym3799  0 1))"p" )))
(assert (not (= "" sym2953 )))
(assert (not (= "y" "n" )))
(assert (not (= (str.toLower (str.substr sym1894  0 1))"q" )))
(assert (not (= "" sym1673 )))
(assert (= (str.toLower (str.substr sym1457  0 1))"g" ))
(assert (not (= (str.toLower (str.substr sym1032  0 1))"p" )))
(assert (not (= (str.toLower (str.substr sym3169  0 1))"p" )))
(assert (not (= (str.toLower (str.substr sym1894  0 1))"k" )))
(assert (not (= "" sym1457 )))
(assert (not (= (str.toLower (str.substr sym1457  0 1))"k" )))
(assert (not (= (str.toLower (str.substr sym1032  0 1))"k" )))
(assert (not (= (str.toLower (str.substr sym1241  0 1))"k" )))
(assert (not (= (str.toLower (str.substr sym4015  0 1))"q" )))
(assert (not (= (str.toLower (str.substr sym3169  0 1))"k" )))
(assert (not (= "" sym2319 )))
(assert (not (= (str.toLower (str.substr sym551  0 1))"q" )))
(assert (= (str.toLower (str.substr sym1032  0 1))"g" ))
(assert (not (= (str.toLower (str.substr sym2953  0 1))"p" )))
(assert (= (str.toLower (str.substr sym3385  0 1))"g" ))
(assert (not (= (str.toLower (str.substr sym1673  0 1))"r" )))
(assert (not (= (str.toLower (str.substr sym2107  0 1))"r" )))
(assert (not (= (str.toLower (str.substr sym1894  0 1))"p" )))
(assert (not (= (str.toLower (str.substr sym3587  0 1))"k" )))
(assert (not (= (str.toLower (str.substr sym2751  0 1))"k" )))
(assert (not (= "" (str.toLower (str.substr sym209  0 1)))))
(assert (not (= (str.toLower (str.substr sym3799  0 1))"q" )))
(assert (not (= "" sym4231 )))
(assert (not (= (str.toLower (str.substr sym1241  0 1))"q" )))
(assert (not (= "" sym1032 )))
(assert (not (= (str.toLower (str.substr sym816  0 1))"p" )))
(assert (not (= (str.toLower (str.substr sym551  0 1))"p" )))
(assert (= (str.toLower (str.substr sym3799  0 1))"g" ))
(assert (= (str.toLower (str.substr sym1894  0 1))"g" ))
(assert (not (= (str.toLower (str.substr sym2535  0 1))"q" )))
(assert (not (= (str.toLower (str.substr sym2107  0 1))"k" )))
(assert (= (str.toLower (str.substr sym2535  0 1))"g" ))
(assert (not (= "n" "y" )))
(assert (= (str.toLower (str.substr sym4015  0 1))"g" ))
(assert (not (= (str.toLower (str.substr sym4015  0 1))"k" )))
(assert (not (= (str.toLower (str.substr sym2319  0 1))"k" )))
(assert (not (= (str.toLower (str.substr sym3587  0 1))"r" )))
(assert (= (str.toLower (str.substr sym1241  0 1))"g" ))
(assert (not (= (str.toLower (str.substr sym2751  0 1))"p" )))
(assert (not (= "" sym2535 )))
(assert (not (= "" sym4328 )))
(assert (not (= (str.toLower (str.substr sym3587  0 1))"g" )))
(assert (not (= (str.toLower (str.substr sym4015  0 1))"p" )))
(assert (not (= (str.toLower (str.substr sym4231  0 1))"k" )))
(assert (= (str.toLower (str.substr sym3587  0 1))"l" ))
(assert (not (= "" sym209 )))
(assert (not (= "" "y" )))
(assert (not (= (str.toLower (str.substr sym2953  0 1))"k" )))
(assert (not (= "" sym1894 )))
(assert (not (= (str.toLower (str.substr sym3385  0 1))"q" )))
(assert (= (str.toLower (str.substr sym209  0 1))"y" ))
(assert (not (= "" sym4015 )))
(assert (= (str.toLower (str.substr sym2751  0 1))"g" ))
(assert (not (= (str.toLower (str.substr sym2535  0 1))"k" )))
(assert (not (= (str.toLower (str.substr sym3587  0 1))"q" )))
(assert (not (= "" "y" )))
(assert (= (str.toLower (str.substr sym3169  0 1))"g" ))
(assert (= (str.toLower (str.substr sym2319  0 1))"g" ))
(assert (not (= (str.toLower (str.substr sym2107  0 1))"q" )))
(assert (not (= (str.toLower (str.substr sym1457  0 1))"q" )))
(assert (= (str.toLower (str.substr sym2953  0 1))"g" ))
(assert (not (= (str.toLower (str.substr sym1457  0 1))"p" )))
(assert (not (= (str.toLower (str.substr sym1673  0 1))"g" )))
(assert (not (= "" sym816 )))
(assert (= (str.toLower (str.substr sym551  0 1))"g" ))
(assert (not (= (str.toLower (str.substr sym2107  0 1))"g" )))
(assert (not (= (str.toLower (str.substr sym1673  0 1))"p" )))
(assert (not (= "" sym2107 )))
(assert (not (= (str.toLower (str.substr sym2535  0 1))"p" )))
(check-sat)
(get-model)
(exit)
